#definition

# set
set V := C1 C2 C3 C4 C5 ; 	# customer set
set F := F6 F7 F8 F9 F6_1 F6_2 F7_1 F7_2 F8_1 F8_2 F9_1 F9_2 ;#recharging & battery swapping station
set D0 :=N0;
set Dσ :=Nσ;


# param
param CV := 50;    		# ECV fixed cost(Topic Given)
param C := 1000;   		# ECV max load
param Q := 60.63; 		# ECV/BSV battery level
param h := 1;     		# ECV consumption

param CB := 60;    		# BSV fixed cost(Topic Given)
param Qplun := 5;       # BSV max load(battery)
param hplun := 1;     	# BSV consumption
param W :=121.26;		# BSV battery level

param Cde := 1;    		# ECV cost per unit distance
param Cdb := 1;    		# BSV cost per unit distance
param lamda := 3.00;	# battery swap time
param Cb :=8 ;  	    # battery swap cost(BSS/BSV)
param n :=5;	   		# number of customers
param g :=1.47 ;     	# the recharging rate of ECV 



# customer demend
param m :=
N0 0
C1 13
C2 11
C3 23
C4 6
C5 30
F6 0
F7 0
F8 0
F9 0
F6_1 0
F6_2 0
F7_1 0
F7_2 0
F8_1 0
F8_2 0
F9_1 0
F9_2 0
Nσ 0;

param e :=
N0 0
C1 0
C2 0
C3 388
C4 817
C5 501
F6 0
F7 0
F8 0
F9 0
F6_1 0
F6_2 0
F7_1 0
F7_2 0
F8_1 0
F8_2 0
F9_1 0
F9_2 0
Nσ 0;

param l :=
N0 1000
C1 973
C2 974
C3 465
C4 956
C5 540
F6 1000
F7 1000
F8 1000
F9 1000
F6_1 1000
F6_2 1000
F7_1 1000
F7_2 1000
F8_1 1000
F8_2 1000
F9_1 1000
F9_2 1000
Nσ 1000;

param s :=
N0 0
C1 10
C2 10
C3 10
C4 10
C5 10
F6 0
F7 0
F8 0
F9 0
F6_1 0
F6_2 0
F7_1 0
F7_2 0
F8_1 0
F8_2 0
F9_1 0
F9_2 0
Nσ 0;

param d : N0 C1 C2 C3 C4 C5 F6 F7 F8 F9 F6_1 F6_2 F7_1 F7_2 F8_1 F8_2 F9_1 F9_2 Nσ :=
N0 0.0000 16.9706 15.2643 25.5539 33.5410 43.9318 0.0000 29.0689 30.0167 21.1896 0.0000 0.0000 29.0689 29.0689 30.0167 30.0167 21.1896 21.1896 0.0000
C1 16.9706 0.0000 32.0156 10.0499 32.4500 46.0652 16.9706 19.7231 30.4138 32.3883 16.9706 16.9706 19.7231 19.7231 30.4138 30.4138 32.3883 32.3883 16.9706
C2 15.2643 32.0156 0.0000 40.8167 43.5660 44.0114 15.2643 43.1741 34.0588 16.5529 15.2643 15.2643 43.1741 43.1741 34.0588 34.0588 16.5529 16.5529 15.2643
C3 25.5539 10.0499 40.8167 0.0000 29.1204 54.7814 25.5539 13.0384 39.2173 42.4264 25.5539 25.5539 13.0384 13.0384 39.2173 39.2173 42.4264 42.4264 25.5539
C4 33.5410 32.4500 43.5660 29.1204 0.0000 76.0592 33.5410 17.0294 60.8769 54.6260 33.5410 33.5410 17.0294 17.0294 60.8769 60.8769 54.6260 54.6260 33.5410
C5 43.9318 46.0652 44.0114 54.7814 76.0592 0.0000 43.9318 65.7647 15.6525 27.5136 43.9318 43.9318 65.7647 65.7647 15.6525 15.6525 27.5136 27.5136 43.9318
F6 0.0000 16.9706 15.2643 25.5539 33.5410 43.9318 0.0000 29.0689 30.0167 21.1896 0.0000 0.0000 29.0689 29.0689 30.0167 30.0167 21.1896 21.1896 0.0000
F7 29.0689 19.7231 43.1741 13.0384 17.0294 65.7647 29.0689 0.0000 50.1199 49.2544 29.0689 29.0689 0.0000 0.0000 50.1199 50.1199 49.2544 49.2544 29.0689
F8 30.0167 30.4138 34.0588 39.2173 60.8769 15.6525 30.0167 50.1199 0.0000 19.6469 30.0167 30.0167 50.1199 50.1199 0.0000 0.0000 19.6469 19.6469 30.0167
F9 21.1896 32.3883 16.5529 42.4264 54.6260 27.5136 21.1896 49.2544 19.6469 0.0000 21.1896 21.1896 49.2544 49.2544 19.6469 19.6469 0.0000 0.0000 21.1896
F6_1 0.0000 16.9706 15.2643 25.5539 33.5410 43.9318 0.0000 29.0689 30.0167 21.1896 0.0000 0.0000 29.0689 29.0689 30.0167 30.0167 21.1896 21.1896 0.0000
F6_2 0.0000 16.9706 15.2643 25.5539 33.5410 43.9318 0.0000 29.0689 30.0167 21.1896 0.0000 0.0000 29.0689 29.0689 30.0167 30.0167 21.1896 21.1896 0.0000
F7_1 29.0689 19.7231 43.1741 13.0384 17.0294 65.7647 29.0689 0.0000 50.1199 49.2544 29.0689 29.0689 0.0000 0.0000 50.1199 50.1199 49.2544 49.2544 29.0689
F7_2 29.0689 19.7231 43.1741 13.0384 17.0294 65.7647 29.0689 0.0000 50.1199 49.2544 29.0689 29.0689 0.0000 0.0000 50.1199 50.1199 49.2544 49.2544 29.0689
F8_1 30.0167 30.4138 34.0588 39.2173 60.8769 15.6525 30.0167 50.1199 0.0000 19.6469 30.0167 30.0167 50.1199 50.1199 0.0000 0.0000 19.6469 19.6469 30.0167
F8_2 30.0167 30.4138 34.0588 39.2173 60.8769 15.6525 30.0167 50.1199 0.0000 19.6469 30.0167 30.0167 50.1199 50.1199 0.0000 0.0000 19.6469 19.6469 30.0167
F9_1 21.1896 32.3883 16.5529 42.4264 54.6260 27.5136 21.1896 49.2544 19.6469 0.0000 21.1896 21.1896 49.2544 49.2544 19.6469 19.6469 0.0000 0.0000 21.1896
F9_2 21.1896 32.3883 16.5529 42.4264 54.6260 27.5136 21.1896 49.2544 19.6469 0.0000 21.1896 21.1896 49.2544 49.2544 19.6469 19.6469 0.0000 0.0000 21.1896
Nσ 0.0000 16.9706 15.2643 25.5539 33.5410 43.9318 0.0000 29.0689 30.0167 21.1896 0.0000 0.0000 29.0689 29.0689 30.0167 30.0167 21.1896 21.1896 0.0000
;

param t : N0 C1 C2 C3 C4 C5 F6 F7 F8 F9 F6_1 F6_2 F7_1 F7_2 F8_1 F8_2 F9_1 F9_2 Nσ :=
N0 0.0000 16.9706 15.2643 25.5539 33.5410 43.9318 0.0000 29.0689 30.0167 21.1896 0.0000 0.0000 29.0689 29.0689 30.0167 30.0167 21.1896 21.1896 0.0000
C1 16.9706 0.0000 32.0156 10.0499 32.4500 46.0652 16.9706 19.7231 30.4138 32.3883 16.9706 16.9706 19.7231 19.7231 30.4138 30.4138 32.3883 32.3883 16.9706
C2 15.2643 32.0156 0.0000 40.8167 43.5660 44.0114 15.2643 43.1741 34.0588 16.5529 15.2643 15.2643 43.1741 43.1741 34.0588 34.0588 16.5529 16.5529 15.2643
C3 25.5539 10.0499 40.8167 0.0000 29.1204 54.7814 25.5539 13.0384 39.2173 42.4264 25.5539 25.5539 13.0384 13.0384 39.2173 39.2173 42.4264 42.4264 25.5539
C4 33.5410 32.4500 43.5660 29.1204 0.0000 76.0592 33.5410 17.0294 60.8769 54.6260 33.5410 33.5410 17.0294 17.0294 60.8769 60.8769 54.6260 54.6260 33.5410
C5 43.9318 46.0652 44.0114 54.7814 76.0592 0.0000 43.9318 65.7647 15.6525 27.5136 43.9318 43.9318 65.7647 65.7647 15.6525 15.6525 27.5136 27.5136 43.9318
F6 0.0000 16.9706 15.2643 25.5539 33.5410 43.9318 0.0000 29.0689 30.0167 21.1896 0.0000 0.0000 29.0689 29.0689 30.0167 30.0167 21.1896 21.1896 0.0000
F7 29.0689 19.7231 43.1741 13.0384 17.0294 65.7647 29.0689 0.0000 50.1199 49.2544 29.0689 29.0689 0.0000 0.0000 50.1199 50.1199 49.2544 49.2544 29.0689
F8 30.0167 30.4138 34.0588 39.2173 60.8769 15.6525 30.0167 50.1199 0.0000 19.6469 30.0167 30.0167 50.1199 50.1199 0.0000 0.0000 19.6469 19.6469 30.0167
F9 21.1896 32.3883 16.5529 42.4264 54.6260 27.5136 21.1896 49.2544 19.6469 0.0000 21.1896 21.1896 49.2544 49.2544 19.6469 19.6469 0.0000 0.0000 21.1896
F6_1 0.0000 16.9706 15.2643 25.5539 33.5410 43.9318 0.0000 29.0689 30.0167 21.1896 0.0000 0.0000 29.0689 29.0689 30.0167 30.0167 21.1896 21.1896 0.0000
F6_2 0.0000 16.9706 15.2643 25.5539 33.5410 43.9318 0.0000 29.0689 30.0167 21.1896 0.0000 0.0000 29.0689 29.0689 30.0167 30.0167 21.1896 21.1896 0.0000
F7_1 29.0689 19.7231 43.1741 13.0384 17.0294 65.7647 29.0689 0.0000 50.1199 49.2544 29.0689 29.0689 0.0000 0.0000 50.1199 50.1199 49.2544 49.2544 29.0689
F7_2 29.0689 19.7231 43.1741 13.0384 17.0294 65.7647 29.0689 0.0000 50.1199 49.2544 29.0689 29.0689 0.0000 0.0000 50.1199 50.1199 49.2544 49.2544 29.0689
F8_1 30.0167 30.4138 34.0588 39.2173 60.8769 15.6525 30.0167 50.1199 0.0000 19.6469 30.0167 30.0167 50.1199 50.1199 0.0000 0.0000 19.6469 19.6469 30.0167
F8_2 30.0167 30.4138 34.0588 39.2173 60.8769 15.6525 30.0167 50.1199 0.0000 19.6469 30.0167 30.0167 50.1199 50.1199 0.0000 0.0000 19.6469 19.6469 30.0167
F9_1 21.1896 32.3883 16.5529 42.4264 54.6260 27.5136 21.1896 49.2544 19.6469 0.0000 21.1896 21.1896 49.2544 49.2544 19.6469 19.6469 0.0000 0.0000 21.1896
F9_2 21.1896 32.3883 16.5529 42.4264 54.6260 27.5136 21.1896 49.2544 19.6469 0.0000 21.1896 21.1896 49.2544 49.2544 19.6469 19.6469 0.0000 0.0000 21.1896
Nσ 0.0000 16.9706 15.2643 25.5539 33.5410 43.9318 0.0000 29.0689 30.0167 21.1896 0.0000 0.0000 29.0689 29.0689 30.0167 30.0167 21.1896 21.1896 0.0000
;